\ This file has been generated by DOcplex
\ ENCODING=ISO-8859-1
\Problem name: dectiger problem

Maximize
 obj: [ 115.075000000000 a0_u0*a1_u0_x0 + 80 a0_u0*a1_u1_x0 + 116 a0_u0*a1_u2_x0
      + 146.900000000000 a0_u0*a1_u0_x1 + 170 a0_u0*a1_u1_x1
      + 116 a0_u0*a1_u2_x1 + 20 a0_u1*a1_u0_x0 + 70 a0_u1*a1_u1_x0
      + 20 a0_u1*a1_u2_x0 + 180 a0_u1*a1_u0_x1 + 190 a0_u1*a1_u1_x1
      + 180 a0_u1*a1_u2_x1 + 145 a0_u2*a1_u0_x0 + 105 a0_u2*a1_u1_x0
      + 150 a0_u2*a1_u2_x0 + 100 a0_u2*a1_u0_x1 + 150 a0_u2*a1_u1_x1
      + 100 a0_u2*a1_u2_x1 ]/2
Subject To
 c1: 150.275000000000 aj_u0_x0 + 90 aj_u1_x0 + 170 aj_u2_x0 + 106 aj_u3_x0
     + 90 aj_u4_x0 + 170 aj_u5_x0 + 160 aj_u6_x0 + 140 aj_u7_x0 + 180 aj_u8_x0
     - 150.275000000000 a0_u0 - 106 a0_u1 - 160 a0_u2 >= 0
 c2: 150.275000000000 aj_u0_x0 + 90 aj_u1_x0 + 170 aj_u2_x0 + 106 aj_u3_x0
     + 90 aj_u4_x0 + 170 aj_u5_x0 + 160 aj_u6_x0 + 140 aj_u7_x0 + 180 aj_u8_x0
     - 90 a0_u0 - 90 a0_u1 - 140 a0_u2 >= 0
 c3: 150.275000000000 aj_u0_x0 + 90 aj_u1_x0 + 170 aj_u2_x0 + 106 aj_u3_x0
     + 90 aj_u4_x0 + 170 aj_u5_x0 + 160 aj_u6_x0 + 140 aj_u7_x0 + 180 aj_u8_x0
     - 170 a0_u0 - 170 a0_u1 - 180 a0_u2 >= 0
 c4: 98.012500000000 aj_u0_x1 + 135 aj_u1_x1 + 10 aj_u2_x1 + 106 aj_u3_x1
     + 140 aj_u4_x1 + 10 aj_u5_x1 + 70 aj_u6_x1 + 95 aj_u7_x1 + 60 aj_u8_x1
     - 98.012500000000 a0_u0 - 106 a0_u1 - 70 a0_u2 >= 0
 c5: 98.012500000000 aj_u0_x1 + 135 aj_u1_x1 + 10 aj_u2_x1 + 106 aj_u3_x1
     + 140 aj_u4_x1 + 10 aj_u5_x1 + 70 aj_u6_x1 + 95 aj_u7_x1 + 60 aj_u8_x1
     - 135 a0_u0 - 140 a0_u1 - 95 a0_u2 >= 0
 c6: 98.012500000000 aj_u0_x1 + 135 aj_u1_x1 + 10 aj_u2_x1 + 106 aj_u3_x1
     + 140 aj_u4_x1 + 10 aj_u5_x1 + 70 aj_u6_x1 + 95 aj_u7_x1 + 60 aj_u8_x1
     - 10 a0_u0 - 10 a0_u1 - 60 a0_u2 >= 0
 c7: a0_u0 + a0_u1 + a0_u2 = 1
 c8: a1_u0_x0 + a1_u1_x0 + a1_u2_x0 = 1
 c9: aj_u0_x0 + aj_u1_x0 + aj_u2_x0 + aj_u3_x0 + aj_u4_x0 + aj_u5_x0 + aj_u6_x0
     + aj_u7_x0 + aj_u8_x0 = 1
 c10: a1_u0_x1 + a1_u1_x1 + a1_u2_x1 = 1
 c11: aj_u0_x1 + aj_u1_x1 + aj_u2_x1 + aj_u3_x1 + aj_u4_x1 + aj_u5_x1 + aj_u6_x1
      + aj_u7_x1 + aj_u8_x1 = 1
 c12: aj_u0_x0 + aj_u1_x0 + aj_u2_x0 - a0_u0 = 0
 c13: aj_u3_x0 + aj_u4_x0 + aj_u5_x0 - a0_u1 = 0
 c14: aj_u6_x0 + aj_u7_x0 + aj_u8_x0 - a0_u2 = 0
 c15: aj_u0_x1 + aj_u1_x1 + aj_u2_x1 - a0_u0 = 0
 c16: aj_u3_x1 + aj_u4_x1 + aj_u5_x1 - a0_u1 = 0
 c17: aj_u6_x1 + aj_u7_x1 + aj_u8_x1 - a0_u2 = 0
 c18: aj_u0_x0 + aj_u3_x0 + aj_u6_x0 - a1_u0_x0 = 0
 c19: aj_u1_x0 + aj_u4_x0 + aj_u7_x0 - a1_u1_x0 = 0
 c20: aj_u2_x0 + aj_u5_x0 + aj_u8_x0 - a1_u2_x0 = 0
 c21: aj_u0_x1 + aj_u3_x1 + aj_u6_x1 - a1_u0_x1 = 0
 c22: aj_u1_x1 + aj_u4_x1 + aj_u7_x1 - a1_u1_x1 = 0
 c23: aj_u2_x1 + aj_u5_x1 + aj_u8_x1 - a1_u2_x1 = 0

Bounds
       a0_u0 <= 1
       a0_u1 <= 1
       a0_u2 <= 1
 0 <= a1_u0_x0 <= 1
 0 <= a1_u1_x0 <= 1
 0 <= a1_u2_x0 <= 1
       aj_u0_x0 <= 1
       aj_u1_x0 <= 1
       aj_u2_x0 <= 1
       aj_u3_x0 <= 1
       aj_u4_x0 <= 1
       aj_u5_x0 <= 1
       aj_u6_x0 <= 1
       aj_u7_x0 <= 1
       aj_u8_x0 <= 1
 0 <= a1_u0_x1 <= 1
 0 <= a1_u1_x1 <= 1
 0 <= a1_u2_x1 <= 1
       aj_u0_x1 <= 1
       aj_u1_x1 <= 1
       aj_u2_x1 <= 1
       aj_u3_x1 <= 1
       aj_u4_x1 <= 1
       aj_u5_x1 <= 1
       aj_u6_x1 <= 1
       aj_u7_x1 <= 1
       aj_u8_x1 <= 1

Binaries
 a1_u0_x0 a1_u1_x0 a1_u2_x0 a1_u0_x1 a1_u1_x1 a1_u2_x1
End
